2
32
44
40	33
1	1	16	4	
2	2	7	16	18	7	
3	1	6	9	
4	1	4	16	
5	1	16	4	
6	1	33	3	
7	2	6	9	29	3	
8	1	29	4	
9	1	6	15	
10	1	20	6	
11	1	12	9	
12	1	27	2	
13	1	26	2	
14	2	5	14	12	8	
15	1	7	17	
16	2	6	18	7	12	
17	2	8	17	11	6	
18	1	22	4	
19	1	8	9	
20	1	5	10	
21	1	33	3	
22	2	6	14	28	3	
23	1	19	8	
24	2	7	12	16	3	
25	1	6	13	
26	2	8	14	12	5	
27	2	7	15	13	7	
28	2	17	5	32	4	
29	1	32	3	
30	1	16	9	
31	2	20	6	10	4	
32	2	4	12	22	3	
